p cnf 13 29
-13 7 4 0
-13 -5 4 0
13 -3 -2 0
13 3 1 0
-12 -10 -3 0
12 -9 8 0
-12 -9 6 0
12 9 -5 0
-12 9 1 0
12 -9 -1 0
-12 -8 3 0
-12 6 5 0
-11 10 9 0
-11 10 -4 0
-11 10 3 0
-11 -9 -6 0
11 9 6 0
-11 -8 -5 0
11 -6 -5 0
-11 -6 4 0
-10 5 -1 0
-9 8 -4 0
9 5 -1 0
9 -4 3 0
9 4 -1 0
-8 -6 1 0
-8 -5 4 0
-8 -5 -3 0
-6 4 -1 0
